p wcnf 163 326 327 
1 133 -23 0 
1 -42 29 0 
1 54 -108 0 
1 -118 -154 0 
1 152 -157 0 
1 98 -104 0 
1 -21 89 0 
1 93 145 0 
1 88 -1 0 
1 -7 -63 0 
1 -163 -98 0 
1 17 -8 0 
1 -122 -116 0 
1 44 -77 0 
1 -75 114 0 
1 60 -38 0 
1 71 141 0 
1 -118 138 0 
1 -53 -36 0 
1 85 25 0 
1 -8 35 0 
1 93 73 0 
1 -163 29 0 
1 48 -104 0 
1 -22 -15 0 
1 -140 -120 0 
1 -78 154 0 
1 -61 120 0 
1 -89 -34 0 
1 -79 -95 0 
1 -30 -80 0 
1 -37 -54 0 
1 10 -39 0 
1 57 -91 0 
1 -88 93 0 
1 -20 -115 0 
1 -58 132 0 
1 80 117 0 
1 -77 -75 0 
1 113 -132 0 
1 112 -120 0 
1 47 -51 0 
1 -32 -51 0 
1 -41 131 0 
1 -13 -87 0 
1 -7 -109 0 
1 83 -10 0 
1 -156 -57 0 
1 -7 -34 0 
1 86 -143 0 
1 83 -15 0 
1 105 15 0 
1 123 -26 0 
1 23 67 0 
1 4 -158 0 
1 75 -1 0 
1 4 21 0 
1 -69 109 0 
1 -12 -6 0 
1 12 -122 0 
1 7 -56 0 
1 77 -10 0 
1 -97 65 0 
1 91 106 0 
1 -143 -67 0 
1 67 -92 0 
1 -45 21 0 
1 -148 15 0 
1 -93 14 0 
1 94 -88 0 
1 -78 -11 0 
1 151 17 0 
1 -82 -20 0 
1 136 21 0 
1 37 89 0 
1 50 35 0 
1 131 63 0 
1 -5 120 0 
1 -43 -74 0 
1 73 -113 0 
1 -40 -23 0 
1 143 -153 0 
1 135 158 0 
1 -25 20 0 
1 -24 47 0 
1 90 41 0 
1 -98 78 0 
1 -82 -34 0 
1 128 95 0 
1 32 107 0 
1 -137 -44 0 
1 85 122 0 
1 45 -93 0 
1 161 77 0 
1 -132 129 0 
1 -116 20 0 
1 1 21 0 
1 -132 -77 0 
1 42 126 0 
1 -29 -91 0 
1 -51 39 0 
1 153 -134 0 
1 -57 146 0 
1 -11 -39 0 
1 -115 -58 0 
1 -56 -45 0 
1 -155 -7 0 
1 46 3 0 
1 -42 158 0 
1 -128 -68 0 
1 1 91 0 
1 21 -121 0 
1 155 -30 0 
1 92 -139 0 
1 130 -160 0 
1 36 -134 0 
1 -97 -72 0 
1 -155 -21 0 
1 120 112 0 
1 83 -5 0 
1 -117 119 0 
1 -156 105 0 
1 -42 5 0 
1 -135 -37 0 
1 100 -56 0 
1 152 100 0 
1 102 -10 0 
1 137 -127 0 
1 -155 74 0 
1 -68 140 0 
1 117 151 0 
1 162 -32 0 
1 -14 138 0 
1 103 -106 0 
1 -79 -29 0 
1 -18 161 0 
1 -149 139 0 
1 106 -55 0 
1 -106 46 0 
1 -41 -6 0 
1 -126 80 0 
1 59 -87 0 
1 112 -135 0 
1 104 149 0 
1 -71 -75 0 
1 -146 116 0 
1 -114 99 0 
1 144 34 0 
1 110 -91 0 
1 -15 131 0 
1 72 -141 0 
1 -139 24 0 
1 -158 -62 0 
1 -46 -39 0 
1 -121 -139 0 
1 90 146 0 
1 -128 -10 0 
1 85 9 0 
1 126 141 0 
1 -61 -60 0 
1 9 -130 0 
1 87 -59 0 
1 -39 -50 0 
1 5 146 0 
1 -74 81 0 
1 17 -67 0 
1 -88 163 0 
1 -89 -70 0 
1 159 -44 0 
1 131 -102 0 
1 -47 75 0 
1 -112 149 0 
1 -119 117 0 
1 141 47 0 
1 85 101 0 
1 131 76 0 
1 -18 132 0 
1 6 155 0 
1 -76 -80 0 
1 -56 109 0 
1 126 -88 0 
1 163 -146 0 
1 -72 36 0 
1 -18 -73 0 
1 -106 24 0 
1 -89 134 0 
1 6 -40 0 
1 -144 -73 0 
1 45 122 0 
1 -14 54 0 
1 67 14 0 
1 117 118 0 
1 82 -151 0 
1 -54 -10 0 
1 -36 125 0 
1 88 161 0 
1 -71 66 0 
1 -8 63 0 
1 -61 -125 0 
1 -162 -83 0 
1 -135 -139 0 
1 4 -144 0 
1 -113 49 0 
1 22 55 0 
1 -2 138 0 
1 11 84 0 
1 -76 -149 0 
1 148 42 0 
1 -21 163 0 
1 101 19 0 
1 -136 152 0 
1 -119 -76 0 
1 72 113 0 
1 -112 138 0 
1 110 128 0 
1 -157 -89 0 
1 58 73 0 
1 -62 75 0 
1 6 9 0 
1 -98 -95 0 
1 -11 38 0 
1 -99 -17 0 
1 -51 6 0 
1 49 32 0 
1 -132 150 0 
1 72 115 0 
1 94 56 0 
1 33 -110 0 
1 -50 8 0 
1 66 -97 0 
1 -141 -71 0 
1 48 16 0 
1 144 -34 0 
1 -73 -116 0 
1 65 151 0 
1 75 -145 0 
1 135 160 0 
1 60 -133 0 
1 -70 -99 0 
1 -90 86 0 
1 -105 67 0 
1 151 73 0 
1 22 -14 0 
1 -146 57 0 
1 34 22 0 
1 55 128 0 
1 -119 73 0 
1 60 16 0 
1 17 -48 0 
1 -18 -88 0 
1 21 -95 0 
1 -21 130 0 
1 -23 135 0 
1 -28 -30 0 
1 -114 93 0 
1 -50 -73 0 
1 86 -61 0 
1 -6 -19 0 
1 -77 147 0 
1 100 63 0 
1 -150 -135 0 
1 -119 -62 0 
1 -90 116 0 
1 109 116 0 
1 67 -134 0 
1 28 54 0 
1 129 35 0 
1 -150 -148 0 
1 -36 95 0 
1 53 -37 0 
1 14 -1 0 
1 142 -38 0 
1 38 86 0 
1 -18 129 0 
1 -7 -11 0 
1 -67 -48 0 
1 -99 85 0 
1 -37 -57 0 
1 -149 89 0 
1 10 147 0 
1 118 80 0 
1 140 59 0 
1 -102 -73 0 
1 135 -48 0 
1 143 -18 0 
1 6 -65 0 
1 -115 29 0 
1 139 149 0 
1 -29 128 0 
1 14 72 0 
1 143 -132 0 
1 -128 151 0 
1 -58 -49 0 
1 5 14 0 
1 116 -31 0 
1 -95 61 0 
1 -19 113 0 
1 138 -108 0 
1 74 11 0 
1 91 -18 0 
1 119 -85 0 
1 130 -156 0 
1 -152 145 0 
1 105 99 0 
1 69 -136 0 
1 -12 74 0 
1 -140 -111 0 
1 -69 -131 0 
1 -26 -23 0 
1 -133 -63 0 
1 -55 -28 0 
1 -20 -149 0 
1 -112 155 0 
1 -10 -152 0 
1 109 -139 0 
1 -94 65 0 
1 120 -146 0 
1 103 -72 0 
1 -11 152 0 
1 -145 -67 0 
1 107 126 0 
1 -26 -148 0 
1 81 -77 0 
1 141 -96 0 
1 41 -47 0 
1 -55 -26 0 
